#SOLVERNAME# PAJ_CPLEX_MOSEK_msd
#SOLVER# Pajarito.PajaritoSolver(3, 3600.0, 1.0e-5, true, CPLEX.CplexSolver(Any[(:CPX_PARAM_THREADS, 1), (:CPX_PARAM_SCRIND, 1), (:CPX_PARAM_EPINT, 1.0e-9), (:CPX_PARAM_EPRHS, 1.0e-8), (:CPX_PARAM_EPGAP, 1.0e-5)]), Pajarito.UnsetSolver(), 0, false, true, Mosek.MosekSolver(Any[(:LOG, 0), (:NUM_THREADS, 1), (:MSK_DPAR_INTPNT_CO_TOL_REL_GAP, 1.0e-10), (:MSK_DPAR_INTPNT_CO_TOL_PFEAS, 1.0e-10), (:MSK_DPAR_INTPNT_CO_TOL_DFEAS, 1.0e-10), (:MSK_DPAR_INTPNT_CO_TOL_NEAR_REL, 1000.0)]), true, true, false, false, true, false, false, true, false, true, true, true, true, false, true, 10.0, true, false, false, true, 1.0e-12, 1.0e-8, false, "")
#INSTANCE# estein5_C.cbf.gz
#TIMELIMIT# 3600.0

Problem dimensions:
       variables |     132
     constraints |     211
   nonzeros in A |     258

Cones summary:
Cone             | Count   | Min dim.  | Max dim. 
    Second order |      18 |         3 |         3

Variable types:
      continuous |     114
         integer |      18

Transforming data...               0.00s

Creating conic subproblem...       0.00s

Building MIP model...              0.00s

Solving conic relaxation...        0.00s
 - Relaxation status    =        Optimal
 - Relaxation bound     =      -0.000000

Mixed integer rounding cuts applied:  3
Gomory fractional cuts applied:  3
User cuts applied:  165

Root node processing (before b&c):
  Real time             =    0.36 sec. (17.23 ticks)
Sequential b&c:
  Real time             =    0.01 sec. (7.71 ticks)
                          ------------
Total (root+branch&cut) =    0.37 sec. (24.94 ticks)
Warning: Control callbacks may disable some MIP features.
Tried aggregator 2 times.
MIP Presolve eliminated 153 rows and 21 columns.
Aggregator did 31 substitutions.
Reduced MIP has 237 rows, 116 columns, and 711 nonzeros.
Reduced MIP has 16 binaries, 0 generals, 0 SOSs, and 0 indicators.
Presolve time = 0.00 sec. (0.68 ticks)
Probing fixed 0 vars, tightened 17 bounds.
Probing time = 0.00 sec. (0.07 ticks)
Clique table members: 5.
MIP emphasis: balance optimality and feasibility.
MIP search method: traditional branch-and-cut.
Parallel mode: none, using 1 thread.
Root relaxation solution time = 0.00 sec. (0.91 ticks)

        Nodes                                         Cuts/
   Node  Left     Objective  IInf  Best Integer    Best Bound    ItCnt     Gap

      0     0        0.0000    11                      0.0000       68         
*     0+    0                            1.5879        0.0000           100.00%
      0     0        0.0000    12        1.5879      Cuts: 18      103  100.00%
*     0+    0                            1.5879        0.0000           100.00%
      0     2        0.0000     9        1.5879        0.0000      103  100.00%
Elapsed time = 0.03 sec. (22.45 ticks, tree = 0.01 MB, solutions = 1)
*    88    54      integral     0        1.5423        0.5027     2078   67.40%
*    88+   54                            1.5423        0.5027            67.40%
*   186    90      integral     0        1.5423        0.8707     4296   43.54%
*   205    89      integral     0        1.4991        0.9472     4745   36.81%
*   206+   88                            1.4991        0.9472            36.81%

Starting MIP-solver-driven algorithm

MIP-solver-driven algorithm summary:
 - Status               =        Optimal
 - Best feasible        =  +1.499078e+00
 - Best bound           =  +1.499078e+00
 - Relative opt. gap    =      0.000e+00
 - Total time (s)       =       2.92e-01

Timers (s):
 - Setup                =   1.99e-03
 -- Transform data      =   1.28e-04
 -- Create conic data   =   1.38e-03
 -- Create MIP data     =   4.85e-04
 - Algorithm            =   2.90e-01
 -- Solve relaxation    =   2.82e-03
 -- Get relaxation cuts =   7.40e-05
 -- MIP solver driving  =   2.87e-01
 -- Solve subproblems   =   3.88e-02
 -- Get subproblem cuts =   3.77e-03
 -- Get separation cuts =   1.10e-03

Counters:
 - Lazy callbacks       =    65
 -- Integer repeats     =    48
 -- Conic subproblems   =    18
 --- Infeasible         =     0
 --- Optimal            =    18
 --- Suboptimal         =     0
 --- UserLimit          =     0
 --- ConicFailure       =     0
 --- Other status       =     0
 -- Feasible solutions  =    35
 --- From subproblems   =    18
 --- In lazy callback   =    17
 - Heuristic callbacks  =   265
 -- Solutions passed    =     3

Solution returned by MIP solver

Rounds of full separation/subproblem cuts, and count of cuts added:
Cone             | Subp.  | Sep.   | Total  | Relax. | Viol. 
    Second order |   1147 |     85 |    246 |     30 |    246

0 numerically unstable disaggregated SOC cuts

Distance to feasibility (negative indicates strict feasibility):
Cone             | Variable  | Constraint
          Linear |  0.00e+00 |  4.16e-17
    Second order |  8.42e-07 |        NA

Distance to integrality of integer/binary variables:
         integer |  0.00e+00


Gomory fractional cuts applied:  2
User cuts applied:  245

Root node processing (before b&c):
  Real time             =    0.03 sec. (22.45 ticks)
Sequential b&c:
  Real time             =    0.26 sec. (201.21 ticks)
                          ------------
Total (root+branch&cut) =    0.29 sec. (223.66 ticks)
#STATUS# Optimal
#OBJVAL# 1.4990779350738468
#OBJBOUND# 1.4990779350738468
#NODECOUNT# 504
#TIMESOLVER# 0.2918429374694824
#TIMEALL# 0.292255163192749
#SOLUTION# [0.6247373774864646,0.5278114983000788,0.481826,0.586309,0.789565,0.655544,1.028719,0.35721162251353533,0.39698750169992125,1.028719,0.500123,0.33849000000000007,0.330922737932863,0.192384,0.269255,1.028719,0.16482762251353533,0.12773250169992123,1.028719,0.307739,0.06923500000000005,0.0,0.0,0.0,0.3788240327471492,0.05276262251353536,-0.3751324983000788,1.028719,0.19567400000000001,-0.43362999999999996,1.028719,-0.11206499999999997,-0.502865,1.028719,-0.14291137748646465,0.058497501699921184,0.0,0.0,0.0,1.028719,-0.307739,-0.06923500000000005,1.028719,-0.5205343774864646,-0.1395034983000788,0.42638424704689154,-0.377623,-0.19800099999999998,1.028719,-0.6853619999999999,-0.26723600000000003,0.15441976783921754,0.14291137748646465,-0.05849750169992114,0.20852714950772538,-0.16482762251353533,-0.12773250169992123,1.028719,-0.307739,-0.06923500000000005,0.0,0.0,0.330922737932863,0.0,0.0,0.0,0.3788240327471492,0.0,0.0,0.0,0.0,0.0,0.0,0.42638424704689154,0.0,0.15441976783921754,0.20852714950772538,0.0,0.0,0.0,1.0,0.0,0.0,1.0,1.0,-0.0,0.0,-0.0,1.0,0.0,-0.0,1.0,0.0,1.0,1.0,0.0,1.0,1.0,0.0,1.0,1.0,0.0,0.0,1.0,1.0,1.0,0.0,1.0,1.0,0.0,1.0,0.0,0.0,1.0,-0.0,-0.0,0.697796262067137,-0.0,-0.0,1.028719,0.6498949672528507,-0.0,-0.0,-0.0,1.028719,-0.0,-0.0,0.6023347529531085,-0.0,0.8742992321607824,0.8201918504922745,-0.0]
